% Auto-generated by scripts/generate_dzn.py
% problem_type   = regex
% instance       = regex_19
% source_json    = instances_json/2_high_blowup/regex_19.json
% blowup         = 18.38095238095238
% representation = NFA

mode = 1;

var_count = 21;
n_constraints = 2;
Q = 13;
S = 3;
q0 = [1, 1];
F = [{13}, {8}];
weights = [10, 9, 3, 10, 2, 2, 10, 7, 8, 3, 7, 4, 3, 9, 1, 10, 7, 6, 3, 10, 10];
d_dfa = array3d(1..2, 1..13, 1..3, [
  % k = 1
    0, 0, 0,
    0, 0, 0,
    0, 0, 0,
    0, 0, 0,
    0, 0, 0,
    0, 0, 0,
    0, 0, 0,
    0, 0, 0,
    0, 0, 0,
    0, 0, 0,
    0, 0, 0,
    0, 0, 0,
    0, 0, 0,

  % k = 2
    0, 0, 0,
    0, 0, 0,
    0, 0, 0,
    0, 0, 0,
    0, 0, 0,
    0, 0, 0,
    0, 0, 0,
    0, 0, 0,
    0, 0, 0,
    0, 0, 0,
    0, 0, 0,
    0, 0, 0,
    0, 0, 0
]);
d_nfa = array3d(1..2, 1..13, 1..3, [
  % k = 1
    {1}, {1, 2}, {1},
    {}, {}, {3},
    {4}, {4}, {4},
    {5}, {5}, {5},
    {6}, {6}, {6},
    {7}, {7}, {7},
    {8}, {8}, {8},
    {9}, {9}, {9},
    {10}, {10}, {10},
    {11}, {11}, {11},
    {12}, {12}, {12},
    {13}, {13}, {13},
    {}, {}, {},

  % k = 2
    {1}, {2}, {1},
    {2}, {3}, {2},
    {3}, {4}, {3},
    {4}, {5}, {4},
    {5}, {6}, {5},
    {6}, {7}, {6},
    {7}, {8}, {7},
    {8}, {}, {8},
    {}, {}, {},
    {}, {}, {},
    {}, {}, {},
    {}, {}, {},
    {}, {}, {}
]);
